14024.0
1 0 1 0 0 1 0 1 1 0 0 1 0 0 1 0 0 1 0 0 1 0 0 0 1 1 0 0 0 0 
13 11 20 2 20 5 2 24 14 17 5 20 8 20 2 14 14 17 5 11 2 0 25 0 25 8 2 24 5 15 5 25 13 25 20 20 24 15 0 14 0 14 15 8 24 14 0 13 11 8 25 2 14 5 20 20 17 25 0 14 0 5 20 11 11 11 24 0 24 5 13 13 11 17 24 8 24 20 14 24 20 17 13 17 2 17 17 0 20 5 2 24 17 11 17 5 2 17 25 13 8 17 17 25 2 25 17 11 14 8 14 14 2 11 11 25 24 24 24 24 5 8 25 13 8 11 5 15 0 25 0 11 24 25 8 14 0 5 20 17 0 8 20 14 8 25 25 5 2 5 